

[NpcPos]	Flags	Index	PosX	PosY	Type	IsRangeCheck
0	0	1	91	236	3	1
1	0	2	80	211	2	1
2	0	3	67	226	5	1
3	0	4	78	240	1	1
4	0	5	96	214	1	1
5	0	6	97	207	4	1
6	0	7	141	207	1	1
7	0	8	99	230	7	0
8	0	9	77	202	7	0
9	0	10	72	200	7	0
10	0	11	100	222	7	0
11	1	15	69	251	6	1
12	1	16	128	108	6	1
13	1	17	242	242	6	1
14	1	18	248	24	6	1
15	1	19	161	90	6	1
16	1	20	162	240	6	1
17	1	21	42	188	6	1
18	1	22	93	164	6	1
19	1	23	156	123	6	1
20	0	24	94	239	6	1
21	1	25	42	20	6	1
22	1	26	16	16	6	1
23	0	30	31	38	7	0
24	0	31	223	205	7	0
25	0	32	43	157	6	1
26	0	33	60	84	6	1
27	0	34	155	91	7	0
28	0	50	0	0	1	0

[WarpLst]	NpcsIdx	NSetIdx	TargetIdx	LV	Fee	Type
0	15	0	45	3	0	0
1	16	0	51	0	0	1
2	16	1	88	0	0	1
3	16	2	90	0	0	1
4	16	3	133	0	0	1
5	16	4	150	1	0	2
6	16	5	177	1	0	2
7	17	0	89	0	0	1
8	17	1	94	0	0	1
9	17	2	114	0	0	1
10	17	3	119	0	0	1
11	17	4	139	0	0	1
12	17	5	151	1	0	2
13	17	6	164	1	0	2
14	18	0	112	0	0	1
15	18	1	115	0	0	1
16	18	2	207	0	0	1
17	18	3	169	1	0	2
18	18	4	178	1	0	2
19	18	5	191	1	0	2
20	20	0	93	0	0	1
21	21	0	38	0	0	1
22	22	0	39	0	0	1
23	23	0	58	0	0	1
24	23	1	61	0	0	1
25	23	2	76	0	0	1
26	23	3	211	0	0	1
27	23	4	216	0	0	1
28	23	5	256	0	0	1
29	23	6	257	0	0	1
30	23	7	258	0	0	1
31	23	8	259	0	0	1
32	24	0	71	0	0	1
33	24	1	124	0	0	1
34	24	2	125	0	0	1
35	26	0	63	0	0	1
36	32	0	40	0	0	1
37	32	1	91	0	0	1
38	32	2	141	0	0	1
39	32	3	198	0	0	1
40	33	0	48	0	0	1
41	33	1	49	0	0	1
42	33	2	50	0	0	1
43	33	3	62	0	0	1
44	33	4	67	0	0	1
45	33	5	92	0	0	1
46	33	6	113	0	0	1
47	33	7	200	0	0	1

[SkillLst]	NSetIdx	NpcsIdx	SkillIdx	SkillLv
0	0	2	1	1
1	1	2	2	1
2	2	2	209	1
3	3	2	4	1
4	4	2	16	1
5	5	2	203	1
6	6	2	208	1
7	7	2	18	1
8	8	2	22	1
9	9	2	200	1
10	10	2	24	1
11	11	2	7	1
12	12	2	68	1
13	13	2	31	1
14	14	2	204	1
15	15	2	20	1
16	16	2	27	1
17	17	2	38	1
18	18	2	201	1
19	19	2	40	1
20	20	2	211	1
21	21	2	70	1
22	22	2	205	1
23	23	2	44	1
24	24	2	52	1
25	25	2	212	1
26	26	2	35	1
27	27	2	202	1
28	28	2	210	1
29	29	2	56	1
30	30	2	214	1
31	31	2	213	1
32	32	2	207	1
33	33	2	215	1
34	34	2	100	1
35	35	2	128	1
36	36	2	129	1
37	37	2	230	1
38	38	2	424	1
39	39	2	101	1
40	40	2	102	1
41	41	2	103	1
42	42	2	104	1
43	43	2	105	1
44	44	2	106	1
45	45	2	425	1
46	46	2	426	1
47	47	2	427	1
48	48	2	428	1
49	49	2	429	1
50	50	2	430	1
51	51	2	107	1
52	52	2	130	1
53	53	2	131	1
54	54	2	431	1
55	55	2	108	1
56	56	2	109	1
57	57	2	110	1
58	58	2	111	1
59	59	2	112	1
60	60	2	113	1
61	61	2	432	1
62	62	2	433	1
63	63	2	434	1
64	64	2	435	1
65	65	2	436	1
66	66	2	437	1
67	67	2	114	1
68	68	2	132	1
69	69	2	133	1
70	70	2	231	1
71	71	2	438	1
72	72	2	115	1
73	73	2	116	1
74	74	2	117	1
75	75	2	118	1
76	76	2	119	1
77	77	2	120	1
78	78	2	439	1
79	79	2	440	1
80	80	2	441	1
81	81	2	442	1
82	82	2	443	1
83	83	2	444	1
84	84	2	121	1
85	85	2	134	1
86	86	2	135	1
87	87	2	232	1
88	88	2	445	1
89	89	2	122	1
90	90	2	123	1
91	91	2	124	1
92	92	2	125	1
93	93	2	126	1
94	94	2	127	1
95	95	2	446	1
96	96	2	447	1
97	97	2	448	1
98	98	2	449	1
99	99	2	450	1
100	100	2	451	1
101	101	2	136	1
102	102	2	137	1
103	103	2	233	1
104	104	2	242	1
105	105	2	236	1
106	106	2	234	1
107	107	2	138	1
108	108	2	223	1
109	109	2	140	1
110	110	2	229	1
111	111	2	139	1
112	112	2	235	1
113	113	2	141	1
114	114	2	228	1
115	115	2	227	1
116	116	2	226	1
117	117	2	300	1
118	118	2	301	1
119	119	2	300	2
120	120	2	301	2
121	121	2	305	1
122	122	2	306	1
123	123	2	300	3
124	124	2	301	3
125	125	2	302	1
126	126	2	303	1
127	127	2	304	1
128	128	2	305	2
129	129	2	306	2
130	130	2	300	4
131	131	2	301	4
132	132	2	302	2
133	133	2	303	2
134	134	2	304	2
135	135	2	305	3
136	136	2	306	3
137	137	2	300	5
138	138	2	301	5
139	139	2	302	3
140	140	2	303	3
141	141	2	304	3
142	142	2	305	4
143	143	2	306	4
144	144	2	300	6
145	145	2	301	6
146	146	2	302	4
147	147	2	303	4
148	148	2	304	4
149	149	2	305	5
150	150	2	306	5
151	151	2	300	7
152	152	2	301	7
153	153	2	302	5
154	154	2	303	5
155	155	2	304	5
156	156	2	305	6
157	157	2	306	6
158	158	2	300	8
159	159	2	301	8
160	160	2	302	6
161	161	2	303	6
162	162	2	304	6
163	163	2	305	7
164	164	2	306	7
165	165	2	300	9
166	166	2	301	9
167	167	2	302	7
168	168	2	303	7
169	169	2	304	7
170	170	2	305	8
171	171	2	306	8
172	172	2	300	10
173	173	2	301	10
174	174	2	302	8
175	175	2	303	8
176	176	2	304	8
177	177	2	305	9
178	178	2	306	9
179	179	2	310	1
180	180	2	311	1
181	181	2	312	1
182	182	2	313	1
183	183	2	314	1
184	184	2	310	2
185	185	2	311	2
186	186	2	312	2
187	187	2	313	2
188	188	2	314	2
189	189	2	310	3
190	190	2	311	3
191	191	2	312	3
192	192	2	313	3
193	193	2	314	3

[ShopLst]	NpcsIdx	NSetIdx	ItemKind	ItemOpt	ReputationClass	DurationIdx	Price
0	4	0	61	0	-19	0	400
1	4	1	62	0	-19	0	1200
2	4	2	63	0	-19	0	3600
3	4	3	64	0	-19	0	10800
4	4	4	65	0	-19	0	16200
5	4	32	46	0	-19	0	400
6	4	33	47	0	-19	0	1200
7	4	34	48	0	-19	0	3600
8	4	35	49	0	-19	0	10800
9	4	36	50	0	-19	0	16200
10	5	0	271	0	-19	0	400
11	5	2	272	0	-19	0	1200
12	5	4	273	0	-19	0	3600
13	5	6	274	0	-19	0	10800
14	5	16	136	0	-19	0	600
15	5	18	137	0	-19	0	1800
16	5	20	138	0	-19	0	5400
17	5	22	139	0	-19	0	16200
18	5	48	226	0	-19	0	400
19	5	50	227	0	-19	0	1200
20	5	52	228	0	-19	0	3600
21	5	54	229	0	-19	0	10800
22	5	64	181	0	-19	0	400
23	5	66	182	0	-19	0	1200
24	5	68	183	0	-19	0	3600
25	5	70	184	0	-19	0	10800
26	5	80	275	0	-19	0	16200
27	5	82	140	0	-19	0	24300
28	5	84	230	0	-19	0	16200
29	5	86	185	0	-19	0	16200
30	6	0	16	0	-19	0	400
31	6	2	17	0	-19	0	1200
32	6	4	18	0	-19	0	3600
33	6	6	19	0	-19	0	10800
34	6	16	20	0	-19	0	16200
35	6	32	3	7	-19	0	420
36	6	33	4	7	-19	0	5600
37	6	34	5	7	-19	0	35000
38	6	35	6	7	-19	0	420
39	6	36	7	7	-19	0	5600
40	6	37	8	7	-19	0	35000
41	6	38	12	1	-19	0	800
42	6	39	12	7	-19	0	5600
43	6	40	5	20	1	0	100000
44	6	41	8	20	1	0	100000
45	6	42	12	10	1	0	8000
46	6	43	5	30	2	0	150000
47	6	44	8	30	2	0	150000
48	6	45	12	20	2	0	16000
49	6	46	5	50	3	0	250000
50	6	47	8	50	3	0	250000
51	6	48	12	30	3	0	24000
52	6	56	285	0	-19	0	800
53	6	57	293	0	-19	0	800
54	6	58	301	0	-19	0	4000
55	6	59	309	0	-19	0	800
56	6	60	312	0	-19	0	800
57	6	64	350	0	-19	0	800
58	6	66	354	0	-19	0	800
59	6	68	358	0	-19	0	800
60	6	96	692	7809	1	0	40
61	6	97	692	7937	1	0	40
62	6	98	692	8065	1	0	40
63	6	99	692	8193	1	0	40
64	6	100	692	8321	1	0	40
65	7	0	3	1	-19	0	60
66	7	1	4	1	-19	0	800
67	7	2	5	1	-19	0	5000
68	7	3	6	1	-19	0	60
69	7	4	7	1	-19	0	800
70	7	5	8	1	-19	0	5000
71	7	8	3	4	-19	0	240
72	7	9	4	4	-19	0	3200
73	7	10	5	4	-19	0	20000
74	7	11	6	4	-19	0	240
75	7	12	7	4	-19	0	3200
76	7	13	8	4	-19	0	20000
77	7	16	3	7	-19	0	420
78	7	17	4	7	-19	0	5600
79	7	18	5	7	-19	0	35000
80	7	19	6	7	-19	0	420
81	7	20	7	7	-19	0	5600
82	7	21	8	7	-19	0	35000
83	7	24	5	20	1	0	100000
84	7	25	8	20	1	0	100000
85	7	26	12	10	1	0	8000
86	7	27	5	30	2	0	150000
87	7	28	8	30	2	0	150000
88	7	29	12	20	2	0	16000
89	7	35	5	50	3	0	250000
90	7	36	8	50	3	0	250000
91	7	37	12	30	3	0	24000
92	7	48	574	1107	-19	0	10000
93	7	96	1207	4008	-19	0	0
94	7	98	1207	4007	-19	0	0
95	7	100	1207	4006	-19	0	0
96	7	102	1207	4005	-19	0	0
97	7	104	1207	3988	-19	0	0
98	7	106	1207	3987	-19	0	0
99	7	108	1207	3986	-19	0	0
100	7	110	1207	3985	-19	0	0
101	7	112	1207	3968	-19	0	0
102	7	114	1207	3967	-19	0	0
103	7	116	1207	3966	-19	0	0
104	7	118	1207	3965	-19	0	0
105	50	0	3	1	-19	0	60
106	50	1	4	1	-19	0	800
107	50	2	5	1	-19	0	5000
108	50	3	6	1	-19	0	60
109	50	4	7	1	-19	0	800
110	50	5	8	1	-19	0	5000
111	50	8	3	4	-19	0	240
112	50	9	4	4	-19	0	3200
113	50	10	5	4	-19	0	20000
114	50	11	6	4	-19	0	240
115	50	12	7	4	-19	0	3200
116	50	13	8	4	-19	0	20000
117	50	16	3	7	-19	0	420
118	50	17	4	7	-19	0	5600
119	50	18	5	7	-19	0	35000
120	50	19	6	7	-19	0	420
121	50	20	7	7	-19	0	5600
122	50	21	8	7	-19	0	35000
123	50	24	5	20	1	0	100000
124	50	25	8	20	1	0	100000
125	50	26	12	10	1	0	8000
126	50	27	5	30	2	0	150000
127	50	28	8	30	2	0	150000
128	50	29	12	20	2	0	16000
129	50	35	5	50	3	0	250000
130	50	36	8	50	3	0	250000
131	50	37	12	30	3	0	24000
